\ENCODING=ISO-8859-1
\Problem name: IloCplex

Minimize
 obj: x1 + x2 + x3 + x4 + x5 + x6 + x7 + x8 + x9 + x10 + x11 + x12 + x13 + x14
      + x15 + x16 + x17 + x18 + x19 + x20 + x21 + 1000000000000 x22 + x23 + x24
      + x25 + x26 + x27 + x28 + x29 + x30 + x31 + x32 + x33 + x34 + x35 + x36
      + x37 + x38 + x39 + x40 + x41 + x42 + x43 + x44 + x45 + x46 + x47 + x48
      + x49 + x50 + x51 + x52 + x53 + x54 + x55 + x56 + x57 + x58 + x59 + x60
      + x61 + x62 + x63 + x64 + x65 + x66 + x67 + x68 + x69 + x70 + x71 + x72
      + x73 + x74 + x75 + x76 + x77 + x78 + x79 + x80 + x81 + x82 + x83 + x84
      + x85 + x86 + x87 + x88 + x89 + x90 + x91 + x92 + x93 + x94 + x95 + x96
      + x97 + x98 + x99 + x100 + x101 + x102 + x103 + x104 + x105 + x106 + x107
      + x108 + x109 + x110 + x111 + x112 + x113 + x114 + x115 + x116 + x117
      + x118 + x119 + x120 + x121 + x122 + x123 + x124 + x125 + x126 + x127
      + x128 + x129 + x130 + x131 + x132 + x133 + x134 + x135 + x136 + x137
      + x138 + x139 + x140 + x141 + x142 + x143 + x144 + x145 + x146 + x147
      + x148 + x149 + x150 + x151 + x152 + x153 + x154 + x155 + x156 + x157
      + x158 + x159 + x160 + x161 + x162 + x163 + x164 + x165 + x166 + x167
      + x168 + x169 + x170 + x171 + x172 + x173 + x174 + x175 + x176 + x177
      + x178 + x179 + x180 + x181 + x182 + x183 + x184 + x185 + x186 + x187
      + x188 + x189 + x190 + x191 + x192 + x193 + x194 + x195 + x196 + x197
      + x198 + x199 + x200 + x201 + x202 + x203 + x204 + x205 + x206 + x207
      + x208 + x209 + x210 + x211 + x212 + x213 + x214 + x215 + x216 + x217
      + x218 + x219 + x220 + x221 + x222 + x223 + x224 + x225 + x226 + x227
      + x228 + x229 + x230 + x231 + x232 + x233 + x234 + x235 + x236 + x237
      + x238 + x239 + x240 + x241 + x242 + x243 + x244 + x245 + x246 + x247
      + x248 + x249 + x250 + x251 + x252 + x253 + x254 + x255 + x256 + x257
      + x258 + x259 + x260 + x261 + x262 + x263 + x264 + x265 + x266 + x267
      + x268 + x269 + x270 + x271 + x272 + x273 + x274 + x275 + x276 + x277
      + x278 + x279 + x280 + x281 + x282 + x283 + x284 + x285 + x286 + x287
      + x288 + x289 + x290 + x291 + x292 + x293 + x294 + x295 + x296 + x297
      + x298 + x299 + x300 + x301 + x302 + x303 + x304 + x305 + x306 + x307
      + x308 + x309 + x310 + x311 + x312 + x313 + x314 + x315 + x316 + x317
      + x318 + x319 + x320 + x321 + x322 + x323 + x324 + x325 + x326 + x327
      + x328 + x329 + x330 + x331 + x332 + x333 + x334 + x335 + x336 + x337
      + x338 + x339 + x340 + x341 + x342 + x343 + x344 + x345 + x346 + x347
      + x348 + x349 + x350 + x351 + x352 + x353 + x354 + x355 + x356 + x357
      + x358 + x359 + x360 + x361 + x362 + x363 + x364 + x365 + x366 + x367
      + x368 + x369 + x370 + x371 + x372 + x373 + x374 + x375 + x376 + x377
      + x378 + x379 + x380 + x381 + x382 + x383 + x384 + x385 + x386 + x387
      + x388 + x389 + x390 + x391 + x392 + x393 + x394 + x395 + x396 + x397
      + x398 + x399 + x400 + x401 + x402 + x403 + x404 + x405 + x406 + x407
      + x408 + x409 + x410 + x411
Subject To
 c1:  x1  = 1
 c2:  x2  = 1
 c3:  x3  = 1
 c4:  x4  = 1
 c5:  x5 + x302 + x347 + x373 + x387 + x399 + x405 + x408 + x410  = 1
 c6:  x6 + x193 + x271 + x304 + x319 + x364  = 1
 c7:  x7 + x178 + x263  = 1
 c8:  x8 + x165 + x177 + x189 + x253 + x260 + x284 + x286 + x335 + x358 + x372
      + x393  = 1
 c9:  x9 + x161 + x164 + x173 + x252 + x269 + x276 + x348 + x357 + x362 + x395
      + x397  = 1
 c10: x10 + x156 + x160 + x172 + x247 + x251 + x334  = 1
 c11: x11 + x143 + x155 + x170 + x240 + x246 + x249  = 1
 c12: x12 + x138 + x140 + x154 + x162 + x191 + x231 + x238 + x254 + x295 + x314
      + x318 + x332 + x355 + x359 + x361 + x368 + x376 + x379 + x380 + x382
      + x383 + x385  = 1
 c13: x13 + x133 + x137 + x157 + x225 + x230 + x294 + x298 + x328 + x345 + x366
       = 1
 c14: x14 + x130 + x131 + x153 + x224 + x229 + x243 + x255 + x273 + x292 + x317
      + x321 + x338 + x342 + x351 + x354 + x360  = 1
 c15: x15 + x125 + x126 + x127 + x129 + x175 + x194 + x195 + x223 + x233 + x297
      + x315 + x353 + x356 + x391 + x396  = 1
 c16: x16 + x120 + x124 + x134 + x135 + x166 + x167 + x220 + x222 + x239 + x262
      + x268 + x277 + x287 + x301 + x329 + x367 + x377 + x407  = 1
 c17: x17 + x114 + x119 + x132 + x139 + x219 + x242 + x272 + x322  = 1
 c18: x18 + x112 + x113 + x141 + x145 + x171 + x181 + x216 + x218 + x261 + x265
      + x282 + x288 + x291 + x306 + x343 + x369 + x370 + x371 + x390 + x398
       = 1
 c19: x19 + x107 + x111 + x142 + x148 + x169 + x211 + x215 + x221 + x237 + x256
      + x259 + x303 + x378  = 1
 c20: x20 + x104 + x105 + x106 + x159 + x163 + x186 + x245 + x312 + x324 + x349
      + x411  = 1
 c21: x21 + x100 + x101 + x102 + x108 + x117 + x123 + x136 + x147 + x213 + x244
      + x270 + x275 + x283 + x305 + x310 + x311 + x313 + x320 + x323 + x327
      + x330 + x331 + x340 + x341 + x346 + x363  = 1
 c22: x22 + x97 + x98 + x115 + x121 + x144 + x146 + x190 + x208 + x210 + x285
      + x316 + x333 + x344 + x352 + x374 + x375 + x400  = 1
 c23: x23 + x95 + x96 + x146 + x188 + x208 + x250 + x257 + x264 + x278 + x285
      + x352 + x392 + x401 + x403  = 1
 c24: x24 + x92 + x94 + x96 + x147 + x180 + x192 + x205 + x206 + x209 + x217
      + x227 + x228 + x235 + x244 + x280 + x283 + x290 + x299 + x300 + x310
      + x313 + x326 + x333 + x337 + x339 + x344 + x375 + x400  = 1
 c25: x25 + x92 + x94 + x95 + x136 + x144 + x168 + x182 + x184 + x186 + x226
      + x245 + x289 + x312 + x324 + x349 + x388 + x411  = 1
 c26: x26 + x85 + x90 + x91 + x116 + x118 + x121 + x158 + x163 + x176 + x185
      + x274 + x279 + x309 + x340 + x341 + x350 + x365 + x384 + x403  = 1
 c27: x27 + x88 + x90 + x98 + x109 + x149 + x183 + x203 + x204 + x248 + x266
      + x296 + x307 + x325 + x330 + x363 + x381 + x386 + x389 + x394 + x402
      + x406 + x409  = 1
 c28: x28 + x84 + x88 + x93 + x110 + x128 + x151 + x179 + x204 + x212 + x214
      + x232 + x236 + x248 + x267 + x293 + x296 + x308 + x325 + x327 + x381
      + x384 + x386 + x394 + x401 + x402 + x404 + x406 + x409  = 1
 c29: x29 + x81 + x84 + x91 + x108 + x114 + x167 + x201 + x202 + x203 + x226
      + x241 + x256 + x262 + x267 + x272 + x274 + x281 + x282 + x287 + x299
      + x301 + x306 + x329 + x370  = 1
 c30: x30 + x62 + x81 + x85 + x99 + x110 + x117 + x149 + x150 + x151 + x166
      + x182 + x200 + x202 + x207 + x219 + x277 + x281 + x322 + x367 + x378
      + x407  = 1
 c31: x31 + x81 + x83 + x86 + x87 + x89 + x103 + x105 + x116 + x158 + x169
      + x171 + x192 + x194 + x234 + x235 + x261 + x266 + x268 + x278 + x279
      + x297 + x307 + x308 + x309 + x315 + x356 + x377 + x389 + x391 + x398
      + x404  = 1
 c32: x32 + x78 + x79 + x80 + x87 + x93 + x112 + x152 + x174 + x175 + x179
      + x183 + x185 + x242 + x281 + x291 + x303 + x350 + x389 + x392 + x404
       = 1
 c33: x33 + x61 + x76 + x77 + x78 + x89 + x103 + x106 + x111 + x122 + x127
      + x176 + x179 + x183 + x184 + x187 + x190 + x202 + x237 + x241 + x293
      + x300 + x339 + x365 + x396  = 1
 c34: x34 + x74 + x75 + x76 + x77 + x79 + x83 + x113 + x122 + x125 + x131
      + x168 + x185 + x187 + x188 + x198 + x199 + x200 + x201 + x206 + x212
      + x227 + x234 + x239 + x241 + x264 + x265 + x280 + x293 + x305 + x307
      + x308 + x309 + x365 + x388  = 1
 c35: x35 + x72 + x74 + x75 + x78 + x82 + x86 + x97 + x118 + x120 + x158 + x174
      + x180 + x197 + x198 + x199 + x209 + x211 + x223 + x232 + x255 + x266
      + x273 + x279 + x289 + x290 + x320 + x321 + x336 + x337 + x338 + x346
      + x350 + x388 + x390  = 1
 c36: x36 + x68 + x69 + x72 + x73 + x79 + x82 + x103 + x128 + x129 + x149
      + x150 + x151 + x152 + x153 + x168 + x184 + x203 + x243 + x275 + x323
      + x331 + x336 + x343 + x351 + x369 + x371 + x374  = 1
 c37: x37 + x65 + x68 + x69 + x71 + x77 + x82 + x100 + x109 + x115 + x116
      + x122 + x124 + x141 + x142 + x157 + x196 + x197 + x199 + x201 + x206
      + x214 + x225 + x258 + x267 + x270 + x274 + x288 + x289 + x290 + x292
      + x294 + x300 + x311 + x316 + x326 + x336 + x337 + x339 + x342 + x360
       = 1
 c38: x38 + x60 + x64 + x66 + x67 + x68 + x76 + x80 + x85 + x101 + x123 + x148
      + x154 + x159 + x196 + x197 + x198 + x207 + x213 + x217 + x222 + x230
      + x238 + x258 + x295 + x326 + x328 + x354 + x361 + x366  = 1
 c39: x39 + x60 + x64 + x65 + x67 + x69 + x73 + x80 + x91 + x102 + x104 + x109
      + x110 + x119 + x123 + x137 + x180 + x182 + x188 + x191 + x192 + x228
      + x232 + x233 + x234 + x235 + x236 + x250 + x257 + x258 + x316 + x317
      + x318 + x332 + x345 + x359 + x368 + x380 + x385  = 1
 c40: x40 + x60 + x64 + x65 + x66 + x70 + x71 + x74 + x89 + x99 + x101 + x107
      + x133 + x139 + x174 + x176 + x187 + x196 + x200 + x205 + x207 + x218
      + x220 + x227 + x254 + x257 + x258 + x259 + x264 + x298 + x311 + x374
      + x379  = 1
 c41: x41 + x60 + x63 + x66 + x67 + x70 + x71 + x72 + x73 + x75 + x83 + x87
      + x97 + x104 + x128 + x135 + x145 + x152 + x181 + x187 + x207 + x215
      + x216 + x275 + x314 + x323 + x331 + x353 + x355 + x376 + x383  = 1
 c42: x42 + x52 + x53 + x54 + x55 + x56 + x57 + x58 + x59 + x61 + x63 + x64
      + x68 + x70 + x86 + x88 + x99 + x102 + x150 + x152 + x159 + x162 + x174
      + x190 + x210 + x212 + x214 + x217 + x221 + x226 + x229 + x236 + x248
      + x270 + x278 + x296 + x299 + x305 + x320 + x325 + x336 + x381 + x386
      + x392 + x394 + x402 + x406 + x409  = 1
 c43: x43 + x51 + x52 + x53 + x55 + x56 + x57 + x58 + x59 + x61 + x62 + x66
      + x70 + x75 + x82 + x84 + x93 + x107 + x118 + x122 + x132 + x134 + x138
      + x181 + x197 + x200 + x205 + x213 + x216 + x234 + x259 + x280 + x346
      + x382 + x384  = 1
 c44: x44 + x51 + x52 + x53 + x54 + x56 + x57 + x58 + x59 + x61 + x62 + x63
      + x71 + x73 + x76 + x80 + x83 + x90 + x99 + x103 + x105 + x130 + x142
      + x156 + x228 + x231 + x236 + x240 + x250  = 1
 c45: x45 + x51 + x52 + x53 + x54 + x55 + x57 + x58 + x59 + x61 + x62 + x67
      + x71 + x72 + x79 + x89 + x100 + x115 + x118 + x126 + x130 + x132 + x140
      + x145 + x148 + x150 + x155 + x172 + x173 + x276 + x348 + x397  = 1
 c46: x46 + x51 + x52 + x53 + x54 + x55 + x56 + x58 + x59 + x62 + x63 + x65
      + x67 + x70 + x73 + x74 + x77 + x86 + x93 + x106 + x108 + x115 + x117
      + x126 + x135 + x139 + x141 + x143 + x160 + x164 + x165 + x196 + x198
      + x199 + x204 + x210 + x211 + x253 + x335 + x343 + x357 + x358 + x395
       = 1
 c47: x47 + x51 + x52 + x53 + x54 + x55 + x56 + x57 + x59 + x62 + x63 + x64
      + x69 + x84 + x87 + x92 + x99 + x109 + x111 + x113 + x128 + x134 + x140
      + x161 + x205 + x210 + x212 + x215 + x217 + x220 + x224 + x228 + x241
      + x249 + x250 + x251 + x252 + x265 + x269 + x286 + x334 + x390 + x401
       = 1
 c48: x48 + x51 + x52 + x53 + x54 + x55 + x56 + x57 + x58 + x60 + x66 + x67
      + x69 + x70 + x74 + x78 + x83 + x98 + x100 + x112 + x119 + x121 + x150
      + x170 + x189 + x193 + x201 + x204 + x221 + x224 + x228 + x229 + x237
      + x246 + x247 + x263 + x280 + x284 + x288 + x291 + x302 + x347 + x371
      + x372 + x373 + x393 + x398 + x399  = 1
 c49: x49 + x51 + x52 + x54 + x55 + x56 + x57 + x58 + x59 + x61 + x63 + x65
      + x66 + x69 + x72 + x77 + x80 + x87 + x94 + x95 + x124 + x126 + x138
      + x169 + x170 + x171 + x176 + x177 + x178 + x196 + x209 + x210 + x213
      + x214 + x215 + x218 + x221 + x222 + x224 + x231 + x232 + x233 + x246
      + x247 + x260 + x261 + x271 + x303 + x304 + x319 + x362 + x363 + x364
      + x387 + x408 + x410  = 1
 c50: x50 + x51 + x53 + x54 + x55 + x56 + x57 + x58 + x59 + x60 + x65 + x68
      + x72 + x75 + x76 + x81 + x90 + x100 + x102 + x106 + x116 + x119 + x120
      + x125 + x132 + x133 + x144 + x145 + x160 + x161 + x177 + x196 + x199
      + x209 + x214 + x223 + x224 + x226 + x227 + x231 + x239 + x249 + x250
      + x251 + x252 + x260 + x298 + x306 + x341 + x346 + x393  = 1
End
